File : Instances/p66
Used 66s
33297

0 0 1 0 0 0 0 0 1 0 0 0 1 0 0 0 0 1 0 1 0 0 0 1 1 1 0 0 0 0 
25 19 2 24 2 12 2 17 24 17 19 17 23 23 19 25 23 8 24 24 25 24 2 24 23 25 24 17 19 2 19 19 19 24 24 12 8 8 24 24 25 8 12 19 8 19 8 2 19 17 24 24 2 2 8 12 25 8 25 25 19 17 25 8 8 25 23 17 12 25 25 12 19 8 23 23 8 23 8 24 23 2 8 25 12 23 19 2 24 25 17 19 25 25 2 8 17 12 17 17 17 2 25 25 19 17 19 24 24 8 19 19 24 12 12 8 17 25 17 8 8 25 17 19 19 24 2 12 19 17 17 24 25 8 23 8 23 8 17 17 12 24 12 25 25 2 24 2 24 25 24 17 23 17 8 12 2 2 8 8 23 17 23 24 23 24 23 19 23 2 23 8 19 17 19 2 24 23 19 23 2 2 2 19 12 8 12 23 17 2 2 2 19 19 25 12 25 2 23 19 
